pair_coeff 1 1 dpd 102.067126235101 4.5 1 # W - W 
pair_coeff 1 2 dpd 98.26066401022702 4.5 1 # W - Qda 
pair_coeff 1 3 dpd 94.45420178535304 4.5 1 # W - Qd 
pair_coeff 1 4 dpd 94.45420178535304 4.5 1 # W - Qa 
pair_coeff 1 5 dpd 84.93804622316809 4.5 1 # W - Q0 
pair_coeff 1 6 dpd 98.26066401022702 4.5 1 # W - P5 
pair_coeff 1 7 dpd 102.067126235101 4.5 1 # W - P4 
pair_coeff 1 8 dpd 102.067126235101 4.5 1 # W - P3 
pair_coeff 1 9 dpd 105.23917808916265 4.5 1 # W - P2 
pair_coeff 1 10 dpd 105.23917808916265 4.5 1 # W - P1 
pair_coeff 1 11 dpd 111.58328179728596 4.5 1 # W - Nda 
pair_coeff 1 12 dpd 108.4112299432243 4.5 1 # W - Nd 
pair_coeff 1 13 dpd 108.4112299432243 4.5 1 # W - Na 
pair_coeff 1 14 dpd 111.58328179728596 4.5 1 # W - N0 
pair_coeff 1 15 dpd 116.6585647637846 4.5 1 # W - C5 
pair_coeff 1 16 dpd 121.73384773028323 4.5 1 # W - C4 
pair_coeff 1 17 dpd 121.73384773028323 4.5 1 # W - C3 
pair_coeff 1 18 dpd 126.80913069678189 4.5 1 # W - C2 
pair_coeff 1 19 dpd 130.61559292165586 4.5 1 # W - C1 
pair_coeff 1 20 dpd 126.80913069678189 4.5 1 # W - AC2 
pair_coeff 1 21 dpd 130.61559292165586 4.5 1 # W - AC1 
pair_coeff 1 22 dpd 98.26066401022702 4.5 1 # W - SQda 
pair_coeff 1 23 dpd 94.45420178535304 4.5 1 # W - SQd 
pair_coeff 1 24 dpd 94.45420178535304 4.5 1 # W - SQa 
pair_coeff 1 25 dpd 84.93804622316809 4.5 1 # W - SQ0 
pair_coeff 1 26 dpd 98.26066401022702 4.5 1 # W - SP5 
pair_coeff 1 27 dpd 102.067126235101 4.5 1 # W - SP4 
pair_coeff 1 28 dpd 102.067126235101 4.5 1 # W - SP3 
pair_coeff 1 29 dpd 105.23917808916265 4.5 1 # W - SP2 
pair_coeff 1 30 dpd 105.23917808916265 4.5 1 # W - SP1 
pair_coeff 1 31 dpd 111.58328179728596 4.5 1 # W - SNda 
pair_coeff 1 32 dpd 108.4112299432243 4.5 1 # W - SNd 
pair_coeff 1 33 dpd 108.4112299432243 4.5 1 # W - SNa 
pair_coeff 1 34 dpd 111.58328179728596 4.5 1 # W - SN0 
pair_coeff 1 35 dpd 116.6585647637846 4.5 1 # W - SC5 
pair_coeff 1 36 dpd 121.73384773028323 4.5 1 # W - SC4 
pair_coeff 1 37 dpd 121.73384773028323 4.5 1 # W - SC3 
pair_coeff 1 38 dpd 126.80913069678189 4.5 1 # W - SC2 
pair_coeff 1 39 dpd 130.61559292165586 4.5 1 # W - SC1 
pair_coeff 1 40 dpd 126.80913069678189 4.5 1 # W - SAC2 
pair_coeff 1 41 dpd 130.61559292165586 4.5 1 # W - SAC1 
pair_coeff 2 2 dpd 102.067126235101 4.5 1 # Qda - Qda 
pair_coeff 2 3 dpd 98.26066401022702 4.5 1 # Qda - Qd 
pair_coeff 2 4 dpd 98.26066401022702 4.5 1 # Qda - Qa 
pair_coeff 2 5 dpd 102.70153660591333 4.5 1 # Qda - Q0 
pair_coeff 2 6 dpd 102.067126235101 4.5 1 # Qda - P5 
pair_coeff 2 7 dpd 98.26066401022702 4.5 1 # Qda - P4 
pair_coeff 2 8 dpd 98.26066401022702 4.5 1 # Qda - P3 
pair_coeff 2 9 dpd 102.70153660591333 4.5 1 # Qda - P2 
pair_coeff 2 10 dpd 102.70153660591333 4.5 1 # Qda - P1 
pair_coeff 2 11 dpd 102.70153660591333 4.5 1 # Qda - Nda 
pair_coeff 2 12 dpd 99.52948475185168 4.5 1 # Qda - Nd 
pair_coeff 2 13 dpd 99.52948475185168 4.5 1 # Qda - Na 
pair_coeff 2 14 dpd 115.38974402215993 4.5 1 # Qda - N0 
pair_coeff 2 15 dpd 120.46502698865858 4.5 1 # Qda - C5 
pair_coeff 2 16 dpd 125.54030995515723 4.5 1 # Qda - C4 
pair_coeff 2 17 dpd 130.61559292165586 4.5 1 # Qda - C3 
pair_coeff 2 18 dpd 134.42205514652986 4.5 1 # Qda - C2 
pair_coeff 2 19 dpd 134.42205514652986 4.5 1 # Qda - C1 
pair_coeff 2 20 dpd 134.42205514652986 4.5 1 # Qda - AC2 
pair_coeff 2 21 dpd 134.42205514652986 4.5 1 # Qda - AC1 
pair_coeff 2 22 dpd 102.067126235101 4.5 1 # Qda - SQda 
pair_coeff 2 23 dpd 98.26066401022702 4.5 1 # Qda - SQd 
pair_coeff 2 24 dpd 98.26066401022702 4.5 1 # Qda - SQa 
pair_coeff 2 25 dpd 102.70153660591333 4.5 1 # Qda - SQ0 
pair_coeff 2 26 dpd 102.067126235101 4.5 1 # Qda - SP5 
pair_coeff 2 27 dpd 98.26066401022702 4.5 1 # Qda - SP4 
pair_coeff 2 28 dpd 98.26066401022702 4.5 1 # Qda - SP3 
pair_coeff 2 29 dpd 102.70153660591333 4.5 1 # Qda - SP2 
pair_coeff 2 30 dpd 102.70153660591333 4.5 1 # Qda - SP1 
pair_coeff 2 31 dpd 102.70153660591333 4.5 1 # Qda - SNda 
pair_coeff 2 32 dpd 99.52948475185168 4.5 1 # Qda - SNd 
pair_coeff 2 33 dpd 99.52948475185168 4.5 1 # Qda - SNa 
pair_coeff 2 34 dpd 115.38974402215993 4.5 1 # Qda - SN0 
pair_coeff 2 35 dpd 120.46502698865858 4.5 1 # Qda - SC5 
pair_coeff 2 36 dpd 125.54030995515723 4.5 1 # Qda - SC4 
pair_coeff 2 37 dpd 130.61559292165586 4.5 1 # Qda - SC3 
pair_coeff 2 38 dpd 134.42205514652986 4.5 1 # Qda - SC2 
pair_coeff 2 39 dpd 134.42205514652986 4.5 1 # Qda - SC1 
pair_coeff 2 40 dpd 134.42205514652986 4.5 1 # Qda - SAC2 
pair_coeff 2 41 dpd 134.42205514652986 4.5 1 # Qda - SAC1 
pair_coeff 3 3 dpd 102.067126235101 4.5 1 # Qd - Qd 
pair_coeff 3 4 dpd 94.45420178535304 4.5 1 # Qd - Qa 
pair_coeff 3 5 dpd 98.89507438103935 4.5 1 # Qd - Q0 
pair_coeff 3 6 dpd 98.26066401022702 4.5 1 # Qd - P5 
pair_coeff 3 7 dpd 94.45420178535304 4.5 1 # Qd - P4 
pair_coeff 3 8 dpd 94.45420178535304 4.5 1 # Qd - P3 
pair_coeff 3 9 dpd 98.89507438103935 4.5 1 # Qd - P2 
pair_coeff 3 10 dpd 98.89507438103935 4.5 1 # Qd - P1 
pair_coeff 3 11 dpd 98.89507438103935 4.5 1 # Qd - Nda 
pair_coeff 3 12 dpd 108.4112299432243 4.5 1 # Qd - Nd 
pair_coeff 3 13 dpd 95.7230225269777 4.5 1 # Qd - Na 
pair_coeff 3 14 dpd 111.58328179728596 4.5 1 # Qd - N0 
pair_coeff 3 15 dpd 116.6585647637846 4.5 1 # Qd - C5 
pair_coeff 3 16 dpd 121.73384773028323 4.5 1 # Qd - C4 
pair_coeff 3 17 dpd 126.80913069678189 4.5 1 # Qd - C3 
pair_coeff 3 18 dpd 130.61559292165586 4.5 1 # Qd - C2 
pair_coeff 3 19 dpd 130.61559292165586 4.5 1 # Qd - C1 
pair_coeff 3 20 dpd 130.61559292165586 4.5 1 # Qd - AC2 
pair_coeff 3 21 dpd 130.61559292165586 4.5 1 # Qd - AC1 
pair_coeff 3 22 dpd 98.26066401022702 4.5 1 # Qd - SQda 
pair_coeff 3 23 dpd 102.067126235101 4.5 1 # Qd - SQd 
pair_coeff 3 24 dpd 94.45420178535304 4.5 1 # Qd - SQa 
pair_coeff 3 25 dpd 98.89507438103935 4.5 1 # Qd - SQ0 
pair_coeff 3 26 dpd 98.26066401022702 4.5 1 # Qd - SP5 
pair_coeff 3 27 dpd 94.45420178535304 4.5 1 # Qd - SP4 
pair_coeff 3 28 dpd 94.45420178535304 4.5 1 # Qd - SP3 
pair_coeff 3 29 dpd 98.89507438103935 4.5 1 # Qd - SP2 
pair_coeff 3 30 dpd 98.89507438103935 4.5 1 # Qd - SP1 
pair_coeff 3 31 dpd 98.89507438103935 4.5 1 # Qd - SNda 
pair_coeff 3 32 dpd 108.4112299432243 4.5 1 # Qd - SNd 
pair_coeff 3 33 dpd 95.7230225269777 4.5 1 # Qd - SNa 
pair_coeff 3 34 dpd 111.58328179728596 4.5 1 # Qd - SN0 
pair_coeff 3 35 dpd 116.6585647637846 4.5 1 # Qd - SC5 
pair_coeff 3 36 dpd 121.73384773028323 4.5 1 # Qd - SC4 
pair_coeff 3 37 dpd 126.80913069678189 4.5 1 # Qd - SC3 
pair_coeff 3 38 dpd 130.61559292165586 4.5 1 # Qd - SC2 
pair_coeff 3 39 dpd 130.61559292165586 4.5 1 # Qd - SC1 
pair_coeff 3 40 dpd 130.61559292165586 4.5 1 # Qd - SAC2 
pair_coeff 3 41 dpd 130.61559292165586 4.5 1 # Qd - SAC1 
pair_coeff 4 4 dpd 102.067126235101 4.5 1 # Qa - Qa 
pair_coeff 4 5 dpd 98.89507438103935 4.5 1 # Qa - Q0 
pair_coeff 4 6 dpd 98.26066401022702 4.5 1 # Qa - P5 
pair_coeff 4 7 dpd 94.45420178535304 4.5 1 # Qa - P4 
pair_coeff 4 8 dpd 94.45420178535304 4.5 1 # Qa - P3 
pair_coeff 4 9 dpd 98.89507438103935 4.5 1 # Qa - P2 
pair_coeff 4 10 dpd 98.89507438103935 4.5 1 # Qa - P1 
pair_coeff 4 11 dpd 98.89507438103935 4.5 1 # Qa - Nda 
pair_coeff 4 12 dpd 95.7230225269777 4.5 1 # Qa - Nd 
pair_coeff 4 13 dpd 108.4112299432243 4.5 1 # Qa - Na 
pair_coeff 4 14 dpd 111.58328179728596 4.5 1 # Qa - N0 
pair_coeff 4 15 dpd 116.6585647637846 4.5 1 # Qa - C5 
pair_coeff 4 16 dpd 121.73384773028323 4.5 1 # Qa - C4 
pair_coeff 4 17 dpd 126.80913069678189 4.5 1 # Qa - C3 
pair_coeff 4 18 dpd 130.61559292165586 4.5 1 # Qa - C2 
pair_coeff 4 19 dpd 130.61559292165586 4.5 1 # Qa - C1 
pair_coeff 4 20 dpd 130.61559292165586 4.5 1 # Qa - AC2 
pair_coeff 4 21 dpd 130.61559292165586 4.5 1 # Qa - AC1 
pair_coeff 4 22 dpd 98.26066401022702 4.5 1 # Qa - SQda 
pair_coeff 4 23 dpd 94.45420178535304 4.5 1 # Qa - SQd 
pair_coeff 4 24 dpd 102.067126235101 4.5 1 # Qa - SQa 
pair_coeff 4 25 dpd 98.89507438103935 4.5 1 # Qa - SQ0 
pair_coeff 4 26 dpd 98.26066401022702 4.5 1 # Qa - SP5 
pair_coeff 4 27 dpd 94.45420178535304 4.5 1 # Qa - SP4 
pair_coeff 4 28 dpd 94.45420178535304 4.5 1 # Qa - SP3 
pair_coeff 4 29 dpd 98.89507438103935 4.5 1 # Qa - SP2 
pair_coeff 4 30 dpd 98.89507438103935 4.5 1 # Qa - SP1 
pair_coeff 4 31 dpd 98.89507438103935 4.5 1 # Qa - SNda 
pair_coeff 4 32 dpd 95.7230225269777 4.5 1 # Qa - SNd 
pair_coeff 4 33 dpd 108.4112299432243 4.5 1 # Qa - SNa 
pair_coeff 4 34 dpd 111.58328179728596 4.5 1 # Qa - SN0 
pair_coeff 4 35 dpd 116.6585647637846 4.5 1 # Qa - SC5 
pair_coeff 4 36 dpd 121.73384773028323 4.5 1 # Qa - SC4 
pair_coeff 4 37 dpd 126.80913069678189 4.5 1 # Qa - SC3 
pair_coeff 4 38 dpd 130.61559292165586 4.5 1 # Qa - SC2 
pair_coeff 4 39 dpd 130.61559292165586 4.5 1 # Qa - SC1 
pair_coeff 4 40 dpd 130.61559292165586 4.5 1 # Qa - SAC2 
pair_coeff 4 41 dpd 130.61559292165586 4.5 1 # Qa - SAC1 
pair_coeff 5 5 dpd 102.067126235101 4.5 1 # Q0 - Q0 
pair_coeff 5 6 dpd 96.35743289779002 4.5 1 # Q0 - P5 
pair_coeff 5 7 dpd 84.93804622316809 4.5 1 # Q0 - P4 
pair_coeff 5 8 dpd 92.55097067291604 4.5 1 # Q0 - P3 
pair_coeff 5 9 dpd 95.7230225269777 4.5 1 # Q0 - P2 
pair_coeff 5 10 dpd 102.067126235101 4.5 1 # Q0 - P1 
pair_coeff 5 11 dpd 102.067126235101 4.5 1 # Q0 - Nda 
pair_coeff 5 12 dpd 98.89507438103935 4.5 1 # Q0 - Nd 
pair_coeff 5 13 dpd 98.89507438103935 4.5 1 # Q0 - Na 
pair_coeff 5 14 dpd 102.067126235101 4.5 1 # Q0 - N0 
pair_coeff 5 15 dpd 107.14240920159965 4.5 1 # Q0 - C5 
pair_coeff 5 16 dpd 112.21769216809828 4.5 1 # Q0 - C4 
pair_coeff 5 17 dpd 117.29297513459693 4.5 1 # Q0 - C3 
pair_coeff 5 18 dpd 121.09943735947091 4.5 1 # Q0 - C2 
pair_coeff 5 19 dpd 121.09943735947091 4.5 1 # Q0 - C1 
pair_coeff 5 20 dpd 121.09943735947091 4.5 1 # Q0 - AC2 
pair_coeff 5 21 dpd 121.09943735947091 4.5 1 # Q0 - AC1 
pair_coeff 5 22 dpd 102.70153660591333 4.5 1 # Q0 - SQda 
pair_coeff 5 23 dpd 98.89507438103935 4.5 1 # Q0 - SQd 
pair_coeff 5 24 dpd 98.89507438103935 4.5 1 # Q0 - SQa 
pair_coeff 5 25 dpd 102.067126235101 4.5 1 # Q0 - SQ0 
pair_coeff 5 26 dpd 96.35743289779002 4.5 1 # Q0 - SP5 
pair_coeff 5 27 dpd 84.93804622316809 4.5 1 # Q0 - SP4 
pair_coeff 5 28 dpd 92.55097067291604 4.5 1 # Q0 - SP3 
pair_coeff 5 29 dpd 95.7230225269777 4.5 1 # Q0 - SP2 
pair_coeff 5 30 dpd 102.067126235101 4.5 1 # Q0 - SP1 
pair_coeff 5 31 dpd 102.067126235101 4.5 1 # Q0 - SNda 
pair_coeff 5 32 dpd 98.89507438103935 4.5 1 # Q0 - SNd 
pair_coeff 5 33 dpd 98.89507438103935 4.5 1 # Q0 - SNa 
pair_coeff 5 34 dpd 102.067126235101 4.5 1 # Q0 - SN0 
pair_coeff 5 35 dpd 107.14240920159965 4.5 1 # Q0 - SC5 
pair_coeff 5 36 dpd 112.21769216809828 4.5 1 # Q0 - SC4 
pair_coeff 5 37 dpd 117.29297513459693 4.5 1 # Q0 - SC3 
pair_coeff 5 38 dpd 121.09943735947091 4.5 1 # Q0 - SC2 
pair_coeff 5 39 dpd 121.09943735947091 4.5 1 # Q0 - SC1 
pair_coeff 5 40 dpd 121.09943735947091 4.5 1 # Q0 - SAC2 
pair_coeff 5 41 dpd 121.09943735947091 4.5 1 # Q0 - SAC1 
pair_coeff 6 6 dpd 102.067126235101 4.5 1 # P5 - P5 
pair_coeff 6 7 dpd 98.26066401022702 4.5 1 # P5 - P4 
pair_coeff 6 8 dpd 98.26066401022702 4.5 1 # P5 - P3 
pair_coeff 6 9 dpd 95.08861215616537 4.5 1 # P5 - P2 
pair_coeff 6 10 dpd 95.08861215616537 4.5 1 # P5 - P1 
pair_coeff 6 11 dpd 102.70153660591333 4.5 1 # P5 - Nda 
pair_coeff 6 12 dpd 99.52948475185168 4.5 1 # P5 - Nd 
pair_coeff 6 13 dpd 99.52948475185168 4.5 1 # P5 - Na 
pair_coeff 6 14 dpd 115.38974402215993 4.5 1 # P5 - N0 
pair_coeff 6 15 dpd 120.46502698865858 4.5 1 # P5 - C5 
pair_coeff 6 16 dpd 125.54030995515723 4.5 1 # P5 - C4 
pair_coeff 6 17 dpd 125.54030995515723 4.5 1 # P5 - C3 
pair_coeff 6 18 dpd 130.61559292165586 4.5 1 # P5 - C2 
pair_coeff 6 19 dpd 134.42205514652986 4.5 1 # P5 - C1 
pair_coeff 6 20 dpd 130.61559292165586 4.5 1 # P5 - AC2 
pair_coeff 6 21 dpd 134.42205514652986 4.5 1 # P5 - AC1 
pair_coeff 6 22 dpd 102.067126235101 4.5 1 # P5 - SQda 
pair_coeff 6 23 dpd 98.26066401022702 4.5 1 # P5 - SQd 
pair_coeff 6 24 dpd 98.26066401022702 4.5 1 # P5 - SQa 
pair_coeff 6 25 dpd 96.35743289779002 4.5 1 # P5 - SQ0 
pair_coeff 6 26 dpd 102.067126235101 4.5 1 # P5 - SP5 
pair_coeff 6 27 dpd 98.26066401022702 4.5 1 # P5 - SP4 
pair_coeff 6 28 dpd 98.26066401022702 4.5 1 # P5 - SP3 
pair_coeff 6 29 dpd 95.08861215616537 4.5 1 # P5 - SP2 
pair_coeff 6 30 dpd 95.08861215616537 4.5 1 # P5 - SP1 
pair_coeff 6 31 dpd 102.70153660591333 4.5 1 # P5 - SNda 
pair_coeff 6 32 dpd 99.52948475185168 4.5 1 # P5 - SNd 
pair_coeff 6 33 dpd 99.52948475185168 4.5 1 # P5 - SNa 
pair_coeff 6 34 dpd 115.38974402215993 4.5 1 # P5 - SN0 
pair_coeff 6 35 dpd 120.46502698865858 4.5 1 # P5 - SC5 
pair_coeff 6 36 dpd 125.54030995515723 4.5 1 # P5 - SC4 
pair_coeff 6 37 dpd 125.54030995515723 4.5 1 # P5 - SC3 
pair_coeff 6 38 dpd 130.61559292165586 4.5 1 # P5 - SC2 
pair_coeff 6 39 dpd 134.42205514652986 4.5 1 # P5 - SC1 
pair_coeff 6 40 dpd 130.61559292165586 4.5 1 # P5 - SAC2 
pair_coeff 6 41 dpd 134.42205514652986 4.5 1 # P5 - SAC1 
pair_coeff 7 7 dpd 102.067126235101 4.5 1 # P4 - P4 
pair_coeff 7 8 dpd 102.067126235101 4.5 1 # P4 - P3 
pair_coeff 7 9 dpd 105.23917808916265 4.5 1 # P4 - P2 
pair_coeff 7 10 dpd 105.23917808916265 4.5 1 # P4 - P1 
pair_coeff 7 11 dpd 111.58328179728596 4.5 1 # P4 - Nda 
pair_coeff 7 12 dpd 108.4112299432243 4.5 1 # P4 - Nd 
pair_coeff 7 13 dpd 108.4112299432243 4.5 1 # P4 - Na 
pair_coeff 7 14 dpd 111.58328179728596 4.5 1 # P4 - N0 
pair_coeff 7 15 dpd 116.6585647637846 4.5 1 # P4 - C5 
pair_coeff 7 16 dpd 121.73384773028323 4.5 1 # P4 - C4 
pair_coeff 7 17 dpd 121.73384773028323 4.5 1 # P4 - C3 
pair_coeff 7 18 dpd 126.80913069678189 4.5 1 # P4 - C2 
pair_coeff 7 19 dpd 130.61559292165586 4.5 1 # P4 - C1 
pair_coeff 7 20 dpd 126.80913069678189 4.5 1 # P4 - AC2 
pair_coeff 7 21 dpd 130.61559292165586 4.5 1 # P4 - AC1 
pair_coeff 7 22 dpd 98.26066401022702 4.5 1 # P4 - SQda 
pair_coeff 7 23 dpd 94.45420178535304 4.5 1 # P4 - SQd 
pair_coeff 7 24 dpd 94.45420178535304 4.5 1 # P4 - SQa 
pair_coeff 7 25 dpd 84.93804622316809 4.5 1 # P4 - SQ0 
pair_coeff 7 26 dpd 98.26066401022702 4.5 1 # P4 - SP5 
pair_coeff 7 27 dpd 102.067126235101 4.5 1 # P4 - SP4 
pair_coeff 7 28 dpd 102.067126235101 4.5 1 # P4 - SP3 
pair_coeff 7 29 dpd 105.23917808916265 4.5 1 # P4 - SP2 
pair_coeff 7 30 dpd 105.23917808916265 4.5 1 # P4 - SP1 
pair_coeff 7 31 dpd 111.58328179728596 4.5 1 # P4 - SNda 
pair_coeff 7 32 dpd 108.4112299432243 4.5 1 # P4 - SNd 
pair_coeff 7 33 dpd 108.4112299432243 4.5 1 # P4 - SNa 
pair_coeff 7 34 dpd 111.58328179728596 4.5 1 # P4 - SN0 
pair_coeff 7 35 dpd 116.6585647637846 4.5 1 # P4 - SC5 
pair_coeff 7 36 dpd 121.73384773028323 4.5 1 # P4 - SC4 
pair_coeff 7 37 dpd 121.73384773028323 4.5 1 # P4 - SC3 
pair_coeff 7 38 dpd 126.80913069678189 4.5 1 # P4 - SC2 
pair_coeff 7 39 dpd 130.61559292165586 4.5 1 # P4 - SC1 
pair_coeff 7 40 dpd 126.80913069678189 4.5 1 # P4 - SAC2 
pair_coeff 7 41 dpd 130.61559292165586 4.5 1 # P4 - SAC1 
pair_coeff 8 8 dpd 102.067126235101 4.5 1 # P3 - P3 
pair_coeff 8 9 dpd 105.23917808916265 4.5 1 # P3 - P2 
pair_coeff 8 10 dpd 105.23917808916265 4.5 1 # P3 - P1 
pair_coeff 8 11 dpd 105.23917808916265 4.5 1 # P3 - Nda 
pair_coeff 8 12 dpd 102.067126235101 4.5 1 # P3 - Nd 
pair_coeff 8 13 dpd 102.067126235101 4.5 1 # P3 - Na 
pair_coeff 8 14 dpd 111.58328179728596 4.5 1 # P3 - N0 
pair_coeff 8 15 dpd 111.58328179728596 4.5 1 # P3 - C5 
pair_coeff 8 16 dpd 116.6585647637846 4.5 1 # P3 - C4 
pair_coeff 8 17 dpd 116.6585647637846 4.5 1 # P3 - C3 
pair_coeff 8 18 dpd 121.73384773028323 4.5 1 # P3 - C2 
pair_coeff 8 19 dpd 126.80913069678189 4.5 1 # P3 - C1 
pair_coeff 8 20 dpd 121.73384773028323 4.5 1 # P3 - AC2 
pair_coeff 8 21 dpd 126.80913069678189 4.5 1 # P3 - AC1 
pair_coeff 8 22 dpd 98.26066401022702 4.5 1 # P3 - SQda 
pair_coeff 8 23 dpd 94.45420178535304 4.5 1 # P3 - SQd 
pair_coeff 8 24 dpd 94.45420178535304 4.5 1 # P3 - SQa 
pair_coeff 8 25 dpd 92.55097067291604 4.5 1 # P3 - SQ0 
pair_coeff 8 26 dpd 98.26066401022702 4.5 1 # P3 - SP5 
pair_coeff 8 27 dpd 102.067126235101 4.5 1 # P3 - SP4 
pair_coeff 8 28 dpd 102.067126235101 4.5 1 # P3 - SP3 
pair_coeff 8 29 dpd 105.23917808916265 4.5 1 # P3 - SP2 
pair_coeff 8 30 dpd 105.23917808916265 4.5 1 # P3 - SP1 
pair_coeff 8 31 dpd 105.23917808916265 4.5 1 # P3 - SNda 
pair_coeff 8 32 dpd 102.067126235101 4.5 1 # P3 - SNd 
pair_coeff 8 33 dpd 102.067126235101 4.5 1 # P3 - SNa 
pair_coeff 8 34 dpd 111.58328179728596 4.5 1 # P3 - SN0 
pair_coeff 8 35 dpd 111.58328179728596 4.5 1 # P3 - SC5 
pair_coeff 8 36 dpd 116.6585647637846 4.5 1 # P3 - SC4 
pair_coeff 8 37 dpd 116.6585647637846 4.5 1 # P3 - SC3 
pair_coeff 8 38 dpd 121.73384773028323 4.5 1 # P3 - SC2 
pair_coeff 8 39 dpd 126.80913069678189 4.5 1 # P3 - SC1 
pair_coeff 8 40 dpd 121.73384773028323 4.5 1 # P3 - SAC2 
pair_coeff 8 41 dpd 126.80913069678189 4.5 1 # P3 - SAC1 
pair_coeff 9 9 dpd 102.067126235101 4.5 1 # P2 - P2 
pair_coeff 9 10 dpd 102.067126235101 4.5 1 # P2 - P1 
pair_coeff 9 11 dpd 102.067126235101 4.5 1 # P2 - Nda 
pair_coeff 9 12 dpd 98.89507438103935 4.5 1 # P2 - Nd 
pair_coeff 9 13 dpd 98.89507438103935 4.5 1 # P2 - Na 
pair_coeff 9 14 dpd 102.067126235101 4.5 1 # P2 - N0 
pair_coeff 9 15 dpd 108.4112299432243 4.5 1 # P2 - C5 
pair_coeff 9 16 dpd 108.4112299432243 4.5 1 # P2 - C4 
pair_coeff 9 17 dpd 113.48651290972295 4.5 1 # P2 - C3 
pair_coeff 9 18 dpd 118.56179587622158 4.5 1 # P2 - C2 
pair_coeff 9 19 dpd 123.63707884272023 4.5 1 # P2 - C1 
pair_coeff 9 20 dpd 118.56179587622158 4.5 1 # P2 - AC2 
pair_coeff 9 21 dpd 123.63707884272023 4.5 1 # P2 - AC1 
pair_coeff 9 22 dpd 102.70153660591333 4.5 1 # P2 - SQda 
pair_coeff 9 23 dpd 98.89507438103935 4.5 1 # P2 - SQd 
pair_coeff 9 24 dpd 98.89507438103935 4.5 1 # P2 - SQa 
pair_coeff 9 25 dpd 95.7230225269777 4.5 1 # P2 - SQ0 
pair_coeff 9 26 dpd 95.08861215616537 4.5 1 # P2 - SP5 
pair_coeff 9 27 dpd 105.23917808916265 4.5 1 # P2 - SP4 
pair_coeff 9 28 dpd 105.23917808916265 4.5 1 # P2 - SP3 
pair_coeff 9 29 dpd 102.067126235101 4.5 1 # P2 - SP2 
pair_coeff 9 30 dpd 102.067126235101 4.5 1 # P2 - SP1 
pair_coeff 9 31 dpd 102.067126235101 4.5 1 # P2 - SNda 
pair_coeff 9 32 dpd 98.89507438103935 4.5 1 # P2 - SNd 
pair_coeff 9 33 dpd 98.89507438103935 4.5 1 # P2 - SNa 
pair_coeff 9 34 dpd 102.067126235101 4.5 1 # P2 - SN0 
pair_coeff 9 35 dpd 108.4112299432243 4.5 1 # P2 - SC5 
pair_coeff 9 36 dpd 108.4112299432243 4.5 1 # P2 - SC4 
pair_coeff 9 37 dpd 113.48651290972295 4.5 1 # P2 - SC3 
pair_coeff 9 38 dpd 118.56179587622158 4.5 1 # P2 - SC2 
pair_coeff 9 39 dpd 123.63707884272023 4.5 1 # P2 - SC1 
pair_coeff 9 40 dpd 118.56179587622158 4.5 1 # P2 - SAC2 
pair_coeff 9 41 dpd 123.63707884272023 4.5 1 # P2 - SAC1 
pair_coeff 10 10 dpd 102.067126235101 4.5 1 # P1 - P1 
pair_coeff 10 11 dpd 102.067126235101 4.5 1 # P1 - Nda 
pair_coeff 10 12 dpd 98.89507438103935 4.5 1 # P1 - Nd 
pair_coeff 10 13 dpd 98.89507438103935 4.5 1 # P1 - Na 
pair_coeff 10 14 dpd 102.067126235101 4.5 1 # P1 - N0 
pair_coeff 10 15 dpd 108.4112299432243 4.5 1 # P1 - C5 
pair_coeff 10 16 dpd 108.4112299432243 4.5 1 # P1 - C4 
pair_coeff 10 17 dpd 108.4112299432243 4.5 1 # P1 - C3 
pair_coeff 10 18 dpd 113.48651290972295 4.5 1 # P1 - C2 
pair_coeff 10 19 dpd 118.56179587622158 4.5 1 # P1 - C1 
pair_coeff 10 20 dpd 113.48651290972295 4.5 1 # P1 - AC2 
pair_coeff 10 21 dpd 118.56179587622158 4.5 1 # P1 - AC1 
pair_coeff 10 22 dpd 102.70153660591333 4.5 1 # P1 - SQda 
pair_coeff 10 23 dpd 98.89507438103935 4.5 1 # P1 - SQd 
pair_coeff 10 24 dpd 98.89507438103935 4.5 1 # P1 - SQa 
pair_coeff 10 25 dpd 102.067126235101 4.5 1 # P1 - SQ0 
pair_coeff 10 26 dpd 95.08861215616537 4.5 1 # P1 - SP5 
pair_coeff 10 27 dpd 105.23917808916265 4.5 1 # P1 - SP4 
pair_coeff 10 28 dpd 105.23917808916265 4.5 1 # P1 - SP3 
pair_coeff 10 29 dpd 102.067126235101 4.5 1 # P1 - SP2 
pair_coeff 10 30 dpd 102.067126235101 4.5 1 # P1 - SP1 
pair_coeff 10 31 dpd 102.067126235101 4.5 1 # P1 - SNda 
pair_coeff 10 32 dpd 98.89507438103935 4.5 1 # P1 - SNd 
pair_coeff 10 33 dpd 98.89507438103935 4.5 1 # P1 - SNa 
pair_coeff 10 34 dpd 102.067126235101 4.5 1 # P1 - SN0 
pair_coeff 10 35 dpd 108.4112299432243 4.5 1 # P1 - SC5 
pair_coeff 10 36 dpd 108.4112299432243 4.5 1 # P1 - SC4 
pair_coeff 10 37 dpd 108.4112299432243 4.5 1 # P1 - SC3 
pair_coeff 10 38 dpd 113.48651290972295 4.5 1 # P1 - SC2 
pair_coeff 10 39 dpd 118.56179587622158 4.5 1 # P1 - SC1 
pair_coeff 10 40 dpd 113.48651290972295 4.5 1 # P1 - SAC2 
pair_coeff 10 41 dpd 118.56179587622158 4.5 1 # P1 - SAC1 
pair_coeff 11 11 dpd 102.067126235101 4.5 1 # Nda - Nda 
pair_coeff 11 12 dpd 98.89507438103935 4.5 1 # Nda - Nd 
pair_coeff 11 13 dpd 98.89507438103935 4.5 1 # Nda - Na 
pair_coeff 11 14 dpd 108.4112299432243 4.5 1 # Nda - N0 
pair_coeff 11 15 dpd 108.4112299432243 4.5 1 # Nda - C5 
pair_coeff 11 16 dpd 113.48651290972295 4.5 1 # Nda - C4 
pair_coeff 11 17 dpd 118.56179587622158 4.5 1 # Nda - C3 
pair_coeff 11 18 dpd 118.56179587622158 4.5 1 # Nda - C2 
pair_coeff 11 19 dpd 118.56179587622158 4.5 1 # Nda - C1 
pair_coeff 11 20 dpd 118.56179587622158 4.5 1 # Nda - AC2 
pair_coeff 11 21 dpd 118.56179587622158 4.5 1 # Nda - AC1 
pair_coeff 11 22 dpd 102.70153660591333 4.5 1 # Nda - SQda 
pair_coeff 11 23 dpd 98.89507438103935 4.5 1 # Nda - SQd 
pair_coeff 11 24 dpd 98.89507438103935 4.5 1 # Nda - SQa 
pair_coeff 11 25 dpd 102.067126235101 4.5 1 # Nda - SQ0 
pair_coeff 11 26 dpd 102.70153660591333 4.5 1 # Nda - SP5 
pair_coeff 11 27 dpd 111.58328179728596 4.5 1 # Nda - SP4 
pair_coeff 11 28 dpd 105.23917808916265 4.5 1 # Nda - SP3 
pair_coeff 11 29 dpd 102.067126235101 4.5 1 # Nda - SP2 
pair_coeff 11 30 dpd 102.067126235101 4.5 1 # Nda - SP1 
pair_coeff 11 31 dpd 102.067126235101 4.5 1 # Nda - SNda 
pair_coeff 11 32 dpd 98.89507438103935 4.5 1 # Nda - SNd 
pair_coeff 11 33 dpd 98.89507438103935 4.5 1 # Nda - SNa 
pair_coeff 11 34 dpd 108.4112299432243 4.5 1 # Nda - SN0 
pair_coeff 11 35 dpd 108.4112299432243 4.5 1 # Nda - SC5 
pair_coeff 11 36 dpd 113.48651290972295 4.5 1 # Nda - SC4 
pair_coeff 11 37 dpd 118.56179587622158 4.5 1 # Nda - SC3 
pair_coeff 11 38 dpd 118.56179587622158 4.5 1 # Nda - SC2 
pair_coeff 11 39 dpd 118.56179587622158 4.5 1 # Nda - SC1 
pair_coeff 11 40 dpd 118.56179587622158 4.5 1 # Nda - SAC2 
pair_coeff 11 41 dpd 118.56179587622158 4.5 1 # Nda - SAC1 
pair_coeff 12 12 dpd 102.067126235101 4.5 1 # Nd - Nd 
pair_coeff 12 13 dpd 95.7230225269777 4.5 1 # Nd - Na 
pair_coeff 12 14 dpd 105.23917808916265 4.5 1 # Nd - N0 
pair_coeff 12 15 dpd 105.23917808916265 4.5 1 # Nd - C5 
pair_coeff 12 16 dpd 110.3144610556613 4.5 1 # Nd - C4 
pair_coeff 12 17 dpd 115.38974402215993 4.5 1 # Nd - C3 
pair_coeff 12 18 dpd 115.38974402215993 4.5 1 # Nd - C2 
pair_coeff 12 19 dpd 115.38974402215993 4.5 1 # Nd - C1 
pair_coeff 12 20 dpd 115.38974402215993 4.5 1 # Nd - AC2 
pair_coeff 12 21 dpd 115.38974402215993 4.5 1 # Nd - AC1 
pair_coeff 12 22 dpd 99.52948475185168 4.5 1 # Nd - SQda 
pair_coeff 12 23 dpd 108.4112299432243 4.5 1 # Nd - SQd 
pair_coeff 12 24 dpd 95.7230225269777 4.5 1 # Nd - SQa 
pair_coeff 12 25 dpd 98.89507438103935 4.5 1 # Nd - SQ0 
pair_coeff 12 26 dpd 99.52948475185168 4.5 1 # Nd - SP5 
pair_coeff 12 27 dpd 108.4112299432243 4.5 1 # Nd - SP4 
pair_coeff 12 28 dpd 102.067126235101 4.5 1 # Nd - SP3 
pair_coeff 12 29 dpd 98.89507438103935 4.5 1 # Nd - SP2 
pair_coeff 12 30 dpd 98.89507438103935 4.5 1 # Nd - SP1 
pair_coeff 12 31 dpd 98.89507438103935 4.5 1 # Nd - SNda 
pair_coeff 12 32 dpd 102.067126235101 4.5 1 # Nd - SNd 
pair_coeff 12 33 dpd 95.7230225269777 4.5 1 # Nd - SNa 
pair_coeff 12 34 dpd 105.23917808916265 4.5 1 # Nd - SN0 
pair_coeff 12 35 dpd 105.23917808916265 4.5 1 # Nd - SC5 
pair_coeff 12 36 dpd 110.3144610556613 4.5 1 # Nd - SC4 
pair_coeff 12 37 dpd 115.38974402215993 4.5 1 # Nd - SC3 
pair_coeff 12 38 dpd 115.38974402215993 4.5 1 # Nd - SC2 
pair_coeff 12 39 dpd 115.38974402215993 4.5 1 # Nd - SC1 
pair_coeff 12 40 dpd 115.38974402215993 4.5 1 # Nd - SAC2 
pair_coeff 12 41 dpd 115.38974402215993 4.5 1 # Nd - SAC1 
pair_coeff 13 13 dpd 102.067126235101 4.5 1 # Na - Na 
pair_coeff 13 14 dpd 105.23917808916265 4.5 1 # Na - N0 
pair_coeff 13 15 dpd 105.23917808916265 4.5 1 # Na - C5 
pair_coeff 13 16 dpd 110.3144610556613 4.5 1 # Na - C4 
pair_coeff 13 17 dpd 115.38974402215993 4.5 1 # Na - C3 
pair_coeff 13 18 dpd 115.38974402215993 4.5 1 # Na - C2 
pair_coeff 13 19 dpd 115.38974402215993 4.5 1 # Na - C1 
pair_coeff 13 20 dpd 115.38974402215993 4.5 1 # Na - AC2 
pair_coeff 13 21 dpd 115.38974402215993 4.5 1 # Na - AC1 
pair_coeff 13 22 dpd 99.52948475185168 4.5 1 # Na - SQda 
pair_coeff 13 23 dpd 95.7230225269777 4.5 1 # Na - SQd 
pair_coeff 13 24 dpd 108.4112299432243 4.5 1 # Na - SQa 
pair_coeff 13 25 dpd 98.89507438103935 4.5 1 # Na - SQ0 
pair_coeff 13 26 dpd 99.52948475185168 4.5 1 # Na - SP5 
pair_coeff 13 27 dpd 108.4112299432243 4.5 1 # Na - SP4 
pair_coeff 13 28 dpd 102.067126235101 4.5 1 # Na - SP3 
pair_coeff 13 29 dpd 98.89507438103935 4.5 1 # Na - SP2 
pair_coeff 13 30 dpd 98.89507438103935 4.5 1 # Na - SP1 
pair_coeff 13 31 dpd 98.89507438103935 4.5 1 # Na - SNda 
pair_coeff 13 32 dpd 95.7230225269777 4.5 1 # Na - SNd 
pair_coeff 13 33 dpd 102.067126235101 4.5 1 # Na - SNa 
pair_coeff 13 34 dpd 105.23917808916265 4.5 1 # Na - SN0 
pair_coeff 13 35 dpd 105.23917808916265 4.5 1 # Na - SC5 
pair_coeff 13 36 dpd 110.3144610556613 4.5 1 # Na - SC4 
pair_coeff 13 37 dpd 115.38974402215993 4.5 1 # Na - SC3 
pair_coeff 13 38 dpd 115.38974402215993 4.5 1 # Na - SC2 
pair_coeff 13 39 dpd 115.38974402215993 4.5 1 # Na - SC1 
pair_coeff 13 40 dpd 115.38974402215993 4.5 1 # Na - SAC2 
pair_coeff 13 41 dpd 115.38974402215993 4.5 1 # Na - SAC1 
pair_coeff 14 14 dpd 102.067126235101 4.5 1 # N0 - N0 
pair_coeff 14 15 dpd 102.067126235101 4.5 1 # N0 - C5 
pair_coeff 14 16 dpd 102.067126235101 4.5 1 # N0 - C4 
pair_coeff 14 17 dpd 102.067126235101 4.5 1 # N0 - C3 
pair_coeff 14 18 dpd 107.14240920159965 4.5 1 # N0 - C2 
pair_coeff 14 19 dpd 112.21769216809828 4.5 1 # N0 - C1 
pair_coeff 14 20 dpd 107.14240920159965 4.5 1 # N0 - AC2 
pair_coeff 14 21 dpd 112.21769216809828 4.5 1 # N0 - AC1 
pair_coeff 14 22 dpd 115.38974402215993 4.5 1 # N0 - SQda 
pair_coeff 14 23 dpd 111.58328179728596 4.5 1 # N0 - SQd 
pair_coeff 14 24 dpd 111.58328179728596 4.5 1 # N0 - SQa 
pair_coeff 14 25 dpd 102.067126235101 4.5 1 # N0 - SQ0 
pair_coeff 14 26 dpd 115.38974402215993 4.5 1 # N0 - SP5 
pair_coeff 14 27 dpd 111.58328179728596 4.5 1 # N0 - SP4 
pair_coeff 14 28 dpd 111.58328179728596 4.5 1 # N0 - SP3 
pair_coeff 14 29 dpd 102.067126235101 4.5 1 # N0 - SP2 
pair_coeff 14 30 dpd 102.067126235101 4.5 1 # N0 - SP1 
pair_coeff 14 31 dpd 108.4112299432243 4.5 1 # N0 - SNda 
pair_coeff 14 32 dpd 105.23917808916265 4.5 1 # N0 - SNd 
pair_coeff 14 33 dpd 105.23917808916265 4.5 1 # N0 - SNa 
pair_coeff 14 34 dpd 102.067126235101 4.5 1 # N0 - SN0 
pair_coeff 14 35 dpd 102.067126235101 4.5 1 # N0 - SC5 
pair_coeff 14 36 dpd 102.067126235101 4.5 1 # N0 - SC4 
pair_coeff 14 37 dpd 102.067126235101 4.5 1 # N0 - SC3 
pair_coeff 14 38 dpd 107.14240920159965 4.5 1 # N0 - SC2 
pair_coeff 14 39 dpd 112.21769216809828 4.5 1 # N0 - SC1 
pair_coeff 14 40 dpd 107.14240920159965 4.5 1 # N0 - SAC2 
pair_coeff 14 41 dpd 112.21769216809828 4.5 1 # N0 - SAC1 
pair_coeff 15 15 dpd 102.067126235101 4.5 1 # C5 - C5 
pair_coeff 15 16 dpd 102.067126235101 4.5 1 # C5 - C4 
pair_coeff 15 17 dpd 102.067126235101 4.5 1 # C5 - C3 
pair_coeff 15 18 dpd 107.14240920159965 4.5 1 # C5 - C2 
pair_coeff 15 19 dpd 107.14240920159965 4.5 1 # C5 - C1 
pair_coeff 15 20 dpd 107.14240920159965 4.5 1 # C5 - AC2 
pair_coeff 15 21 dpd 107.14240920159965 4.5 1 # C5 - AC1 
pair_coeff 15 22 dpd 120.46502698865858 4.5 1 # C5 - SQda 
pair_coeff 15 23 dpd 116.6585647637846 4.5 1 # C5 - SQd 
pair_coeff 15 24 dpd 116.6585647637846 4.5 1 # C5 - SQa 
pair_coeff 15 25 dpd 107.14240920159965 4.5 1 # C5 - SQ0 
pair_coeff 15 26 dpd 120.46502698865858 4.5 1 # C5 - SP5 
pair_coeff 15 27 dpd 116.6585647637846 4.5 1 # C5 - SP4 
pair_coeff 15 28 dpd 111.58328179728596 4.5 1 # C5 - SP3 
pair_coeff 15 29 dpd 108.4112299432243 4.5 1 # C5 - SP2 
pair_coeff 15 30 dpd 108.4112299432243 4.5 1 # C5 - SP1 
pair_coeff 15 31 dpd 108.4112299432243 4.5 1 # C5 - SNda 
pair_coeff 15 32 dpd 105.23917808916265 4.5 1 # C5 - SNd 
pair_coeff 15 33 dpd 105.23917808916265 4.5 1 # C5 - SNa 
pair_coeff 15 34 dpd 102.067126235101 4.5 1 # C5 - SN0 
pair_coeff 15 35 dpd 102.067126235101 4.5 1 # C5 - SC5 
pair_coeff 15 36 dpd 102.067126235101 4.5 1 # C5 - SC4 
pair_coeff 15 37 dpd 102.067126235101 4.5 1 # C5 - SC3 
pair_coeff 15 38 dpd 107.14240920159965 4.5 1 # C5 - SC2 
pair_coeff 15 39 dpd 107.14240920159965 4.5 1 # C5 - SC1 
pair_coeff 15 40 dpd 107.14240920159965 4.5 1 # C5 - SAC2 
pair_coeff 15 41 dpd 107.14240920159965 4.5 1 # C5 - SAC1 
pair_coeff 16 16 dpd 102.067126235101 4.5 1 # C4 - C4 
pair_coeff 16 17 dpd 102.067126235101 4.5 1 # C4 - C3 
pair_coeff 16 18 dpd 107.14240920159965 4.5 1 # C4 - C2 
pair_coeff 16 19 dpd 107.14240920159965 4.5 1 # C4 - C1 
pair_coeff 16 20 dpd 107.14240920159965 4.5 1 # C4 - AC2 
pair_coeff 16 21 dpd 107.14240920159965 4.5 1 # C4 - AC1 
pair_coeff 16 22 dpd 125.54030995515723 4.5 1 # C4 - SQda 
pair_coeff 16 23 dpd 121.73384773028323 4.5 1 # C4 - SQd 
pair_coeff 16 24 dpd 121.73384773028323 4.5 1 # C4 - SQa 
pair_coeff 16 25 dpd 112.21769216809828 4.5 1 # C4 - SQ0 
pair_coeff 16 26 dpd 125.54030995515723 4.5 1 # C4 - SP5 
pair_coeff 16 27 dpd 121.73384773028323 4.5 1 # C4 - SP4 
pair_coeff 16 28 dpd 116.6585647637846 4.5 1 # C4 - SP3 
pair_coeff 16 29 dpd 108.4112299432243 4.5 1 # C4 - SP2 
pair_coeff 16 30 dpd 108.4112299432243 4.5 1 # C4 - SP1 
pair_coeff 16 31 dpd 113.48651290972295 4.5 1 # C4 - SNda 
pair_coeff 16 32 dpd 110.3144610556613 4.5 1 # C4 - SNd 
pair_coeff 16 33 dpd 110.3144610556613 4.5 1 # C4 - SNa 
pair_coeff 16 34 dpd 102.067126235101 4.5 1 # C4 - SN0 
pair_coeff 16 35 dpd 102.067126235101 4.5 1 # C4 - SC5 
pair_coeff 16 36 dpd 102.067126235101 4.5 1 # C4 - SC4 