pair_coeff 1 1 dpd 102.067126235101 4.5 1 # Qd - Qd 
pair_coeff 1 2 dpd 98.89735786291367 4.5 1 # Qd - P1 
pair_coeff 1 3 dpd 98.89735786291367 4.5 1 # Qd - Nda 
pair_coeff 1 4 dpd 121.71969014266243 4.5 1 # Qd - SC4 
pair_coeff 1 5 dpd 108.40666297947566 4.5 1 # Qd - SNd 
pair_coeff 1 6 dpd 116.6480607471627 4.5 1 # Qd - SC5 
pair_coeff 1 7 dpd 94.45968214185142 4.5 1 # Qd - Qa 
pair_coeff 1 8 dpd 98.2634041884762 4.5 1 # Qd - P5 
pair_coeff 1 9 dpd 126.79131953816216 4.5 1 # Qd - C3 
pair_coeff 1 10 dpd 94.45968214185142 4.5 1 # Qd - W 
pair_coeff 2 2 dpd 102.067126235101 4.5 1 # P1 - P1 
pair_coeff 2 3 dpd 102.067126235101 4.5 1 # P1 - Nda 
pair_coeff 2 4 dpd 108.40666297947566 4.5 1 # P1 - SC4 
pair_coeff 2 5 dpd 98.89735786291367 4.5 1 # P1 - SNd 
pair_coeff 2 6 dpd 108.40666297947566 4.5 1 # P1 - SC5 
pair_coeff 2 7 dpd 98.89735786291367 4.5 1 # P1 - Qa 
pair_coeff 2 8 dpd 95.09363581628888 4.5 1 # P1 - P5 
pair_coeff 2 9 dpd 108.40666297947566 4.5 1 # P1 - C3 
pair_coeff 2 10 dpd 105.23689460728833 4.5 1 # P1 - W 
pair_coeff 3 3 dpd 102.067126235101 4.5 1 # Nda - Nda 
pair_coeff 3 4 dpd 113.47829237497538 4.5 1 # Nda - SC4 
pair_coeff 3 5 dpd 98.89735786291367 4.5 1 # Nda - SNd 
pair_coeff 3 6 dpd 108.40666297947566 4.5 1 # Nda - SC5 
pair_coeff 3 7 dpd 98.89735786291367 4.5 1 # Nda - Qa 
pair_coeff 3 8 dpd 102.70107990953846 4.5 1 # Nda - P5 
pair_coeff 3 9 dpd 118.54992177047511 4.5 1 # Nda - C3 
pair_coeff 3 10 dpd 111.57643135166299 4.5 1 # Nda - W 
pair_coeff 4 4 dpd 102.067126235101 8.334566092452 0.908560296416 # SC4 - SC4 
pair_coeff 4 5 dpd 108.24817456086629 8.334566092452 0.908560296416 # SC4 - SNd 
pair_coeff 4 6 dpd 102.067126235101 8.334566092452 0.908560296416 # SC4 - SC5 
pair_coeff 4 7 dpd 121.71969014266243 4.5 1 # SC4 - Qa 
pair_coeff 4 8 dpd 125.52341218928723 4.5 1 # SC4 - P5 
pair_coeff 4 9 dpd 102.067126235101 4.5 1 # SC4 - C3 
pair_coeff 4 10 dpd 121.71969014266243 4.5 1 # SC4 - W 
pair_coeff 5 5 dpd 102.067126235101 8.334566092452 0.908560296416 # SNd - SNd 
pair_coeff 5 6 dpd 104.44445251424149 8.334566092452 0.908560296416 # SNd - SC5 
pair_coeff 5 7 dpd 95.72758949072634 4.5 1 # SNd - Qa 
pair_coeff 5 8 dpd 99.53131153735113 4.5 1 # SNd - P5 
pair_coeff 5 9 dpd 115.38015339828777 4.5 1 # SNd - C3 
pair_coeff 5 10 dpd 108.40666297947566 4.5 1 # SNd - W 
pair_coeff 6 6 dpd 102.067126235101 8.334566092452 0.908560296416 # SC5 - SC5 
pair_coeff 6 7 dpd 116.6480607471627 4.5 1 # SC5 - Qa 
pair_coeff 6 8 dpd 120.4517827937875 4.5 1 # SC5 - P5 
pair_coeff 6 9 dpd 102.067126235101 4.5 1 # SC5 - C3 
pair_coeff 6 10 dpd 116.6480607471627 4.5 1 # SC5 - W 
pair_coeff 7 7 dpd 102.067126235101 4.5 1 # Qa - Qa 
pair_coeff 7 8 dpd 98.2634041884762 4.5 1 # Qa - P5 
pair_coeff 7 9 dpd 126.79131953816216 4.5 1 # Qa - C3 
pair_coeff 7 10 dpd 94.45968214185142 4.5 1 # Qa - W 
pair_coeff 8 8 dpd 102.067126235101 4.5 1 # P5 - P5 
pair_coeff 8 9 dpd 125.52341218928723 4.5 1 # P5 - C3 
pair_coeff 8 10 dpd 98.2634041884762 4.5 1 # P5 - W 
pair_coeff 9 9 dpd 102.067126235101 4.5 1 # C3 - C3 
pair_coeff 9 10 dpd 121.71969014266243 4.5 1 # C3 - W 
pair_coeff 10 10 dpd 102.067126235101 4.5 1 # W - W 
pair_coeff * * coul/slater/long
dielectric 78.3
